p cnf 73 24
11 -12 0
11 -13 0
11 -14 0
11 -15 0
-1 -2 3 0
1 -4 0
-3 4 0
2 -4 0
7 8 9 13 0
5 7 -10 14 0
5 6 -9 12 0
5 -9 -10 15 0
-8 -13 0
-6 -12 0
10 -15 0
10 -14 0
-7 -14 0
-7 -13 0
9 -15 0
-5 -15 0
-5 -14 0
-9 -13 0
9 -12 0
-5 -12 0
